c "724839.clq"
p edge 150 584
e 1 5
e 1 6
e 1 9
e 1 12
e 1 15
e 1 18
e 1 19
e 1 20
e 1 21
e 1 24
e 1 25
e 1 32
e 1 34
e 1 36
e 1 38
e 1 40
e 1 43
e 1 44
e 1 51
e 1 57
e 1 84
e 1 92
e 1 94
e 1 98
e 1 100
e 1 109
e 1 112
e 1 117
e 1 127
e 1 133
e 1 140
e 1 142
e 1 145
e 2 5
e 2 7
e 2 8
e 2 17
e 2 30
e 2 35
e 2 42
e 2 44
e 2 57
e 2 80
e 3 5
e 3 6
e 3 7
e 3 8
e 3 13
e 3 14
e 3 17
e 3 18
e 3 25
e 3 31
e 3 37
e 3 43
e 3 45
e 3 53
e 3 67
e 3 82
e 3 83
e 3 87
e 3 91
e 3 96
e 3 115
e 3 118
e 3 131
e 3 138
e 4 5
e 4 6
e 4 9
e 4 10
e 4 13
e 4 14
e 4 16
e 4 32
e 4 39
e 4 49
e 4 60
e 4 64
e 4 76
e 4 78
e 4 112
e 4 114
e 4 130
e 4 133
e 4 140
e 4 142
e 4 146
e 5 6
e 5 7
e 5 8
e 5 9
e 5 10
e 5 11
e 5 12
e 5 13
e 5 15
e 5 20
e 5 22
e 5 26
e 5 31
e 5 38
e 5 40
e 5 50
e 5 52
e 5 54
e 5 65
e 5 67
e 5 84
e 5 90
e 5 91
e 5 93
e 5 97
e 5 99
e 5 101
e 5 106
e 5 117
e 5 129
e 5 134
e 5 139
e 5 146
e 6 7
e 6 8
e 6 11
e 6 16
e 6 18
e 6 22
e 6 26
e 6 30
e 6 34
e 6 40
e 6 54
e 6 66
e 6 80
e 6 87
e 6 93
e 6 97
e 6 116
e 6 148
e 6 149
e 7 9
e 7 10
e 7 11
e 7 12
e 7 19
e 7 23
e 7 27
e 7 31
e 7 34
e 7 42
e 7 51
e 7 52
e 7 65
e 7 81
e 7 105
e 7 106
e 7 122
e 7 129
e 7 136
e 7 140
e 8 14
e 8 21
e 8 22
e 8 24
e 8 27
e 8 45
e 8 48
e 8 51
e 8 56
e 8 59
e 8 69
e 8 85
e 8 93
e 8 111
e 8 122
e 8 138
e 9 10
e 9 12
e 9 16
e 9 19
e 9 23
e 9 28
e 9 29
e 9 32
e 9 33
e 9 42
e 9 47
e 9 53
e 9 58
e 9 59
e 9 83
e 9 98
e 9 99
e 9 107
e 9 120
e 9 121
e 9 123
e 9 135
e 10 11
e 10 20
e 10 39
e 10 68
e 10 90
e 10 113
e 11 14
e 11 16
e 11 19
e 11 21
e 11 24
e 11 25
e 11 26
e 11 27
e 11 31
e 11 33
e 11 39
e 11 41
e 11 44
e 11 48
e 11 49
e 11 61
e 11 62
e 11 67
e 11 79
e 11 86
e 11 99
e 11 120
e 11 132
e 11 136
e 11 139
e 11 147
e 12 13
e 12 15
e 12 17
e 12 35
e 12 36
e 12 38
e 12 40
e 12 55
e 12 100
e 12 101
e 12 113
e 12 124
e 13 15
e 13 36
e 13 38
e 13 41
e 13 48
e 13 49
e 13 73
e 14 17
e 14 18
e 14 23
e 14 32
e 14 33
e 14 35
e 14 37
e 14 46
e 14 60
e 14 64
e 14 71
e 14 78
e 14 79
e 14 89
e 14 94
e 14 99
e 14 133
e 14 142
e 14 144
e 15 24
e 15 30
e 15 46
e 15 52
e 15 56
e 15 74
e 15 76
e 15 100
e 15 102
e 16 20
e 16 29
e 16 37
e 16 44
e 16 67
e 16 87
e 16 97
e 16 145
e 17 21
e 17 23
e 17 33
e 17 35
e 17 37
e 17 46
e 17 52
e 17 62
e 17 68
e 17 72
e 17 104
e 17 129
e 17 141
e 18 39
e 18 104
e 19 30
e 19 36
e 19 61
e 19 74
e 19 87
e 19 107
e 20 22
e 20 26
e 20 28
e 20 50
e 20 53
e 20 63
e 20 69
e 20 82
e 20 84
e 20 101
e 20 110
e 20 125
e 20 126
e 20 128
e 21 55
e 21 57
e 21 63
e 21 74
e 21 75
e 21 84
e 21 131
e 21 145
e 21 148
e 22 41
e 22 64
e 22 68
e 22 69
e 22 83
e 22 94
e 22 105
e 22 109
e 22 118
e 22 144
e 23 46
e 23 58
e 23 81
e 23 96
e 23 98
e 23 112
e 23 132
e 24 25
e 24 27
e 24 29
e 24 58
e 24 62
e 24 75
e 24 83
e 24 95
e 24 132
e 25 43
e 25 72
e 25 104
e 26 28
e 26 43
e 26 47
e 26 56
e 26 88
e 26 102
e 26 119
e 27 28
e 27 89
e 28 29
e 28 45
e 28 53
e 28 65
e 28 68
e 28 85
e 29 41
e 29 106
e 29 116
e 29 135
e 30 85
e 30 96
e 31 72
e 31 89
e 32 34
e 32 42
e 32 45
e 32 75
e 32 77
e 32 92
e 32 93
e 32 103
e 32 106
e 32 108
e 32 127
e 32 131
e 32 137
e 32 139
e 32 141
e 32 142
e 32 144
e 33 76
e 33 110
e 33 123
e 34 59
e 34 109
e 34 115
e 34 123
e 34 125
e 34 146
e 36 50
e 36 54
e 36 77
e 36 82
e 36 118
e 36 124
e 37 50
e 37 54
e 37 61
e 37 63
e 37 73
e 37 80
e 37 108
e 37 126
e 37 147
e 38 71
e 38 91
e 38 114
e 38 121
e 38 149
e 39 56
e 39 145
e 40 47
e 40 55
e 40 63
e 40 85
e 40 104
e 40 117
e 40 125
e 40 139
e 43 47
e 43 49
e 43 91
e 43 97
e 44 75
e 45 48
e 45 130
e 45 149
e 46 58
e 46 60
e 46 70
e 46 79
e 46 80
e 46 95
e 46 116
e 46 126
e 47 65
e 47 89
e 47 147
e 47 149
e 48 77
e 48 111
e 48 115
e 48 130
e 48 150
e 49 66
e 49 74
e 49 103
e 49 118
e 49 120
e 49 121
e 49 148
e 50 51
e 50 55
e 50 57
e 50 60
e 50 82
e 50 88
e 50 119
e 50 134
e 50 137
e 50 140
e 51 61
e 51 70
e 52 73
e 52 76
e 52 81
e 52 94
e 52 102
e 52 107
e 52 115
e 54 64
e 54 70
e 54 88
e 54 98
e 54 117
e 56 72
e 56 124
e 56 125
e 57 128
e 57 150
e 58 59
e 58 128
e 59 78
e 59 95
e 59 119
e 59 141
e 59 146
e 61 62
e 61 108
e 62 66
e 62 70
e 62 73
e 63 66
e 64 101
e 64 108
e 64 111
e 65 79
e 65 109
e 65 122
e 65 127
e 66 69
e 66 143
e 68 71
e 68 81
e 68 92
e 70 71
e 70 77
e 70 86
e 70 116
e 70 144
e 71 113
e 72 90
e 72 95
e 72 150
e 73 134
e 75 78
e 76 132
e 77 90
e 77 96
e 77 131
e 78 92
e 78 103
e 81 102
e 81 114
e 81 137
e 82 88
e 83 86
e 84 86
e 84 110
e 86 110
e 86 112
e 86 127
e 86 137
e 88 148
e 89 111
e 89 119
e 89 128
e 90 107
e 91 134
e 92 100
e 93 129
e 95 120
e 95 150
e 96 122
e 97 136
e 98 103
e 98 105
e 99 105
e 100 113
e 100 126
e 101 143
e 103 133
e 104 147
e 105 121
e 108 123
e 110 114
e 111 124
e 112 143
e 115 138
e 117 141
e 119 130
e 120 135
e 120 138
e 121 135
e 127 136
e 133 143
